1 151 0 200 1
2 15 220 0 1
3 79 270 140 0
4 259 210 0 0
5 80 240 240 0
6 43 230 230 1
7 227 0 180 0
8 106 0 200 0
9 52 210 0 0
10 15 220 220 1
11 259 0 240 0
12 16 0 0 0
13 41 0 180 0
14 20 0 0 1
15 218 0 140 1
16 134 0 0 0
17 13 170 0 1
18 251 200 0 0
19 242 0 340 0
20 135 230 0 1
21 79 0 0 0
22 79 250 0 1
23 194 0 0 1
24 41 0 0 1
25 157 230 0 0
26 243 210 0 0
27 98 0 150 0
28 93 0 0 0
29 93 0 190 0
30 158 0 190 1
31 41 110 0 0
32 234 320 0 0
33 158 130 0 0
34 83 210 0 1
35 218 230 0 1
36 104 0 0 1
37 15 0 210 1
38 216 230 230 1
39 43 230 0 1
40 41 170 180 0
41 216 0 250 0
42 42 170 180 1
43 68 0 0 0
44 183 200 0 1
45 12 0 190 1
46 134 0 140 0
47 158 0 0 1
48 42 140 0 0
49 106 0 0 0
50 95 0 120 1
51 237 240 230 0
52 79 140 140 1
53 135 0 0 1
54 175 0 0 0
55 273 230 0 1
56 221 0 170 0
57 13 0 0 0
58 135 0 240 0
59 13 0 80 1
60 221 0 0 1
61 13 160 90 1
62 43 0 280 0
63 98 0 0 0
64 171 0 0 1
65 124 270 0 1
66 27 240 0 0
67 98 160 0 0
68 20 160 0 0
69 216 0 190 1
70 197 0 0 1
71 217 0 300 1
72 243 0 110 0
73 98 280 0 0
74 221 120 0 1
75 171 0 230 1
76 161 0 220 0
77 95 190 0 1
78 134 250 240 0
79 13 90 0 0
80 12 0 0 0
81 104 0 160 1
82 216 230 0 0
83 259 0 0 0
84 27 0 200 0
85 194 200 0 0
86 9 0 200 0
87 79 330 140 1
88 112 0 0 0
89 112 0 230 0
90 222 210 0 0
91 234 190 0 1
92 243 0 0 0
93 79 0 280 0
94 20 0 150 0
95 15 0 0 0
96 213 230 0 1
97 213 0 0 0
98 251 0 0 1
99 95 0 0 0
100 234 0 160 1
101 15 280 0 0
102 79 140 0 1
103 273 0 0 0
104 132 0 0 1
105 242 0 0 1
106 158 190 190 0
107 217 110 0 1
108 273 0 200 0
109 83 0 150 1
110 68 0 170 0
111 52 0 0 0
112 151 200 200 0
113 143 0 0 0
114 112 170 0 1
115 218 0 0 0
116 135 240 240 0
117 9 0 0 1
118 42 0 0 0
119 27 0 0 1
120 27 300 0 1
121 80 240 0 1
122 217 0 120 0
123 112 220 230 1
124 54 0 180 1
125 124 160 150 1
126 54 240 0 0
127 242 0 170 0
128 237 240 0 0
129 19 190 0 0
130 227 0 0 0
131 203 0 0 1
132 143 240 0 0
133 19 190 180 0
134 93 220 220 0
135 19 0 0 1
136 79 270 270 0
137 41 0 300 1
138 251 0 140 0
139 237 0 170 0
140 222 0 180 1
141 257 0 170 0
142 79 140 260 0
143 257 240 240 1
144 132 210 0 0
145 154 0 150 1
146 16 0 220 0
147 134 250 0 0
148 68 200 200 0
149 257 0 0 0
150 251 310 0 0
151 157 0 0 1
152 234 0 0 0
153 157 0 140 1
154 19 0 170 0
155 20 160 160 1
156 124 0 110 0
157 203 0 210 0
158 83 0 0 1
159 217 120 240 0
160 68 200 0 0
161 124 160 0 0
162 134 0 210 1
163 203 210 0 1
164 183 0 0 0
165 151 150 0 1
166 124 300 150 0
167 93 220 0 1
168 217 0 240 0
169 27 240 240 1
170 154 0 0 1
171 13 90 150 0
172 216 0 0 1
173 80 0 0 1
174 79 0 140 0
175 98 300 160 0
176 154 220 0 0
177 124 0 0 0
178 43 0 140 0
179 62 0 210 0
180 165 0 160 0
181 203 210 210 0
182 157 0 210 0
183 237 0 0 1
184 13 160 150 1
185 217 0 0 1
186 104 200 0 0
187 165 0 0 0
188 42 0 180 0
189 222 210 200 0
190 54 0 0 0
191 222 0 0 1
192 62 0 0 1
193 154 220 220 0
194 257 240 0 1
195 98 160 160 0
196 43 0 0 0
197 79 330 210 0
198 217 100 120 1
199 151 0 0 0
200 175 0 110 1
201 273 230 230 1
202 143 0 200 1
203 161 0 0 1
204 124 160 200 1
205 80 0 230 1
206 9 140 0 1
207 221 160 170 0
208 197 0 210 0
209 95 190 170 0
210 13 90 90 0
210 283 9438 8.94893